1 100 595
5 3 4 1 1 3 4 3 1 2
3
1 8 4
0 35.0 35.0 0.0 0.0 0 230
2 41.0 49.0 10.0 10.0 133 198 2 0 0 0 0 0 0 0 1 0 1
3 35.0 17.0 10.0 7.0 22 87 31 1 1 0 0 0 0 0 0 0 0
4 55.0 45.0 10.0 13.0 98 143 32 1 1 1 0 0 1 1 0 1 0
5 55.0 20.0 10.0 19.0 123 184 28 0 1 0 0 0 1 0 0 0 0
6 15.0 30.0 10.0 26.0 20 93 52 0 1 1 0 0 0 0 0 0 0
7 25.0 30.0 10.0 3.0 76 131 36 0 0 0 0 0 0 0 1 0 0
8 20.0 50.0 10.0 5.0 61 110 36 1 0 0 1 0 0 1 0 1 0
9 10.0 43.0 10.0 9.0 75 124 34 0 0 0 0 0 0 1 0 1 0
10 55.0 60.0 10.0 16.0 74 129 25 0 0 0 0 1 0 0 1 0 0
11 30.0 60.0 10.0 16.0 107 150 62 0 0 0 0 0 1 0 0 0 0
12 20.0 65.0 10.0 12.0 42 101 5 0 0 1 0 1 0 0 0 0 0
13 50.0 35.0 10.0 19.0 38 97 17 1 1 1 0 1 0 0 0 0 1
14 30.0 25.0 10.0 23.0 131 196 41 1 0 0 0 0 1 1 0 0 0
15 15.0 10.0 10.0 20.0 32 114 94 0 0 0 0 1 0 0 0 0 0
16 30.0 5.0 10.0 8.0 35 96 18 0 0 0 0 0 0 0 0 0 1
17 10.0 20.0 10.0 19.0 52 107 94 0 0 0 0 0 0 1 0 0 1
18 5.0 30.0 10.0 2.0 124 189 91 0 0 1 0 1 0 0 0 0 1
19 20.0 40.0 10.0 12.0 69 114 89 0 1 0 0 0 0 0 0 1 0
20 15.0 60.0 10.0 17.0 52 109 86 1 1 0 0 0 1 0 1 1 0
21 45.0 65.0 10.0 9.0 105 156 24 0 1 0 0 0 0 1 0 0 0
22 45.0 20.0 10.0 11.0 37 96 8 1 0 0 0 1 0 0 0 0 0
23 45.0 10.0 10.0 18.0 76 127 71 0 0 0 0 0 1 0 0 1 0
24 55.0 5.0 10.0 29.0 43 102 94 0 0 0 0 0 1 0 0 0 1
25 65.0 35.0 10.0 3.0 124 190 11 0 0 0 0 1 0 0 0 0 0
26 65.0 20.0 10.0 6.0 121 186 42 0 1 0 0 0 1 1 0 0 1
27 45.0 30.0 10.0 17.0 112 161 99 1 1 1 0 0 1 0 1 0 0
28 35.0 40.0 10.0 16.0 8 75 48 0 0 0 0 0 1 0 0 0 0
29 41.0 37.0 10.0 16.0 11 76 80 0 0 0 0 0 0 0 0 1 0
30 64.0 42.0 10.0 9.0 37 98 84 0 1 0 0 0 1 0 1 1 0
31 40.0 60.0 10.0 21.0 49 102 59 0 0 0 0 1 0 0 0 0 0
32 31.0 52.0 10.0 27.0 24 85 79 1 0 1 0 1 0 1 0 1 1
33 35.0 69.0 10.0 23.0 116 175 8 0 0 1 0 0 0 0 0 0 1
34 53.0 52.0 10.0 11.0 24 92 70 1 1 0 0 1 0 1 1 0 0
35 65.0 55.0 10.0 14.0 96 147 46 0 0 0 1 0 0 1 0 1 0
36 63.0 65.0 10.0 8.0 116 178 63 0 0 0 0 0 1 0 0 0 0
37 2.0 60.0 10.0 5.0 41 112 35 0 0 1 1 0 0 0 1 0 0
38 20.0 20.0 10.0 8.0 113 164 79 0 0 1 0 1 0 1 0 1 0
39 5.0 5.0 10.0 16.0 60 115 73 0 0 0 0 0 0 1 0 1 0
40 60.0 12.0 10.0 31.0 33 110 20 1 1 0 0 0 0 0 0 0 0
41 40.0 25.0 10.0 9.0 65 114 58 0 0 0 0 0 1 0 0 0 0
42 42.0 7.0 10.0 5.0 72 131 3 0 0 0 0 1 0 0 0 0 0
43 24.0 12.0 10.0 5.0 25 91 90 0 0 0 0 0 1 0 0 0 0
44 23.0 3.0 10.0 7.0 111 162 92 0 0 1 1 1 0 0 0 0 1
45 11.0 14.0 10.0 18.0 45 102 44 0 0 0 1 0 0 0 0 0 0
46 6.0 38.0 10.0 16.0 29 99 60 0 0 0 0 0 0 0 0 0 1
47 2.0 48.0 10.0 1.0 92 151 16 0 0 1 0 0 0 0 0 0 0
48 8.0 56.0 10.0 27.0 34 105 17 1 0 0 0 0 0 0 0 0 0
49 13.0 52.0 10.0 36.0 128 192 54 1 0 0 1 1 0 0 1 1 1
50 6.0 68.0 10.0 30.0 93 132 93 1 0 0 0 0 0 1 0 0 0
51 47.0 47.0 10.0 13.0 102 155 51 1 0 0 0 0 1 0 0 0 0
52 49.0 58.0 10.0 10.0 64 121 54 0 0 1 1 0 0 0 0 1 0
53 27.0 43.0 10.0 9.0 26 87 42 0 0 0 0 0 1 0 0 0 0
54 37.0 31.0 10.0 14.0 75 124 88 0 0 1 0 0 0 1 0 1 0
55 57.0 29.0 10.0 18.0 118 171 63 1 1 0 1 0 0 0 0 0 0
56 63.0 23.0 10.0 2.0 111 170 48 0 1 0 0 0 1 0 0 1 0
57 53.0 12.0 10.0 6.0 106 163 59 1 1 0 0 0 1 1 1 0 0
58 32.0 12.0 10.0 7.0 77 134 89 0 0 0 0 1 0 0 0 0 0
59 36.0 26.0 10.0 18.0 147 210 37 0 1 0 0 0 0 0 1 1 0
60 21.0 24.0 10.0 28.0 17 100 25 1 0 0 0 0 0 1 0 0 1
61 17.0 34.0 10.0 3.0 134 199 44 0 0 0 0 0 0 0 0 0 1
62 12.0 24.0 10.0 13.0 55 106 44 0 0 0 0 0 1 0 0 0 0
63 24.0 58.0 10.0 19.0 30 95 18 0 0 0 0 0 1 0 0 0 0
64 27.0 69.0 10.0 10.0 34 103 17 1 1 0 1 0 0 0 0 0 0
65 15.0 77.0 10.0 9.0 48 107 38 0 0 1 0 0 0 0 0 0 0
66 62.0 77.0 10.0 20.0 49 113 38 0 0 0 1 1 0 0 0 0 0
67 49.0 73.0 10.0 25.0 104 159 13 0 0 0 0 0 1 0 0 0 0
68 67.0 5.0 10.0 25.0 59 116 85 0 1 0 0 1 0 0 0 0 0
69 56.0 39.0 10.0 36.0 117 176 76 0 0 0 1 1 0 1 0 1 0
70 37.0 47.0 10.0 6.0 23 86 49 0 0 0 0 0 1 1 0 0 0
71 37.0 56.0 10.0 5.0 123 198 68 0 1 0 0 1 0 1 0 0 0
72 57.0 68.0 10.0 15.0 54 109 71 0 0 0 0 1 0 0 0 1 0
73 47.0 16.0 10.0 25.0 22 96 82 0 0 0 0 1 0 0 0 0 0
74 44.0 17.0 10.0 9.0 56 109 29 0 0 0 0 0 1 1 0 0 1
75 46.0 13.0 10.0 8.0 123 184 67 0 0 0 0 0 1 0 0 0 0
76 49.0 11.0 10.0 18.0 45 102 35 1 0 1 0 0 0 0 0 0 0
77 49.0 42.0 10.0 13.0 52 103 98 1 0 0 0 1 0 0 1 1 0
78 53.0 43.0 10.0 14.0 136 200 98 1 1 0 1 0 0 0 0 0 1
79 61.0 52.0 10.0 3.0 71 130 9 0 0 1 0 0 0 1 0 1 0
80 57.0 48.0 10.0 23.0 72 121 87 0 0 0 0 0 1 0 0 0 0
81 56.0 37.0 10.0 6.0 135 198 67 0 0 0 0 0 0 0 1 0 0
82 55.0 54.0 10.0 26.0 78 119 87 1 1 0 0 0 0 0 0 0 1
83 15.0 47.0 10.0 16.0 29 90 7 0 0 0 0 1 0 0 0 1 0
84 14.0 37.0 10.0 11.0 21 89 41 0 1 0 0 0 0 0 0 1 0
85 11.0 31.0 10.0 7.0 81 130 99 0 0 0 0 0 0 1 0 0 0
86 16.0 22.0 10.0 41.0 70 121 14 0 0 0 1 0 0 0 0 0 0
87 4.0 18.0 10.0 35.0 74 123 27 0 1 1 0 0 0 0 0 0 0
88 28.0 18.0 10.0 26.0 79 116 71 1 0 0 0 0 0 1 0 1 0
89 26.0 52.0 10.0 9.0 50 107 97 1 0 0 0 0 0 0 0 1 1
90 26.0 35.0 10.0 15.0 139 211 70 1 0 0 0 1 0 0 1 0 0
91 31.0 67.0 10.0 3.0 73 126 66 1 0 0 0 0 0 0 0 0 0
92 15.0 19.0 10.0 1.0 132 194 74 0 1 0 1 0 0 0 0 0 0
93 22.0 22.0 10.0 2.0 18 88 72 1 0 0 0 0 0 0 0 0 0
94 18.0 24.0 10.0 22.0 129 199 43 1 0 0 0 0 0 0 0 0 0
95 26.0 27.0 10.0 27.0 81 128 82 0 0 1 0 0 0 0 0 0 0
96 25.0 24.0 10.0 20.0 14 78 57 0 0 1 0 0 0 1 1 0 0
97 22.0 27.0 10.0 11.0 114 165 12 0 0 0 0 0 0 1 0 0 0
98 25.0 21.0 10.0 12.0 115 160 56 0 0 0 0 1 0 0 0 0 0
99 19.0 21.0 10.0 10.0 32 93 68 1 0 0 1 0 0 0 1 0 1
100 20.0 26.0 10.0 9.0 60 115 56 0 0 0 0 0 1 0 0 0 0
101 18.0 18.0 10.0 17.0 123 195 91 1 0 1 0 0 1 0 0 0 0